p cnf 965 2350
a 547 548 549 550 551 552 553 554 555 556 557 558 559 560 561 562 563 564 565 566 567 568 569 570 571 572 573 574 575 576 577 578 579 580 581 582 583 584 585 586 587 588 589 590 591 592 593 594 595 596 597 598 599 600 601 602 603 604 605 606 607 608 609 610 611 612 613 614 615 616 617 618 619 620 621 622 623 624 625 626 627 628 629 630 631 632 633 634 635 636 637 638 639 640 641 642 643 644 645 646 647 648 649 650 651 652 653 654 655 656 657 658 659 660 661 662 663 664 665 666 667 668 669 670 671 672 673 674 675 676 677 678 679 680 681 682 683 684 685 686 687 688 689 690 691 692 693 694 695 696 697 698 699 700 701 702 703 704 705 706 707 708 709 710 711 712 713 714 715 716 717 718 719 720 721 722 723 724 725 726 727 728 729 730 731 732 733 734 735 736 737 738 739 740 741 742 743 744 745 746 747 748 749 750 751 752 753 754 755 0
e 506 507 508 509 510 511 512 513 514 515 516 517 518 519 520 521 522 523 524 525 526 527 528 529 530 531 532 533 534 535 536 537 538 539 540 541 542 543 544 545 2 3 4 5 6 7 8 9 10 11 12 13 14 15 16 17 18 19 20 21 22 23 24 25 26 27 28 29 30 31 32 33 34 35 36 37 38 39 40 41 42 43 44 45 46 47 48 49 50 51 52 53 54 55 56 57 58 59 60 61 62 63 64 65 66 67 68 69 70 71 72 73 74 75 76 77 78 79 80 81 82 83 84 85 86 87 88 89 90 91 92 93 94 95 96 97 98 99 100 101 102 103 104 105 106 107 108 109 110 111 112 113 114 115 116 117 118 119 120 121 122 123 124 125 126 127 128 129 130 131 132 133 134 135 136 137 138 139 140 141 142 143 144 145 146 147 148 149 150 151 152 153 154 155 156 157 158 159 160 161 162 163 164 165 166 167 168 169 170 171 172 173 174 175 176 177 178 179 180 181 182 183 184 185 186 187 188 189 190 191 192 193 194 195 196 197 198 199 200 201 202 203 204 205 206 207 208 209 210 211 212 213 214 215 216 217 218 219 220 221 222 223 224 225 226 227 228 229 230 231 232 233 234 235 236 237 238 239 240 241 242 243 244 245 246 247 248 249 250 251 252 253 254 255 256 257 258 259 260 261 262 263 264 265 266 267 268 269 270 271 272 273 274 275 276 277 278 279 280 281 282 283 284 285 286 287 288 289 290 291 292 293 294 295 296 297 298 299 300 301 302 303 304 305 306 307 308 309 310 311 312 313 314 315 316 317 318 319 320 321 322 323 324 325 326 327 328 329 330 331 332 333 334 335 336 337 338 339 340 341 342 343 344 345 346 347 348 349 350 351 352 353 354 355 356 357 358 359 360 361 362 363 364 365 366 367 368 369 370 371 372 373 374 375 376 377 378 379 380 381 382 383 384 385 386 387 388 389 390 391 392 393 394 395 396 397 398 399 400 401 402 403 404 405 406 407 408 409 410 411 412 413 414 415 416 417 418 419 420 421 422 423 424 425 426 427 428 429 430 431 432 433 434 435 436 437 438 439 440 441 442 443 444 445 446 447 448 449 450 451 452 453 454 455 456 457 458 459 460 461 462 463 464 465 466 467 468 469 470 471 472 473 474 475 476 477 478 479 480 481 482 483 484 485 486 487 488 489 490 491 492 493 494 495 496 497 498 499 500 501 502 503 504 505 965 0
4 5 8 -60 -63 0
4 -5 -8 -60 -63 0
63 -4 0
8 -4 -5 0
60 -4 0
5 -4 -8 0
5 -6 0
5 561 642 -708 0
708 6 -5 0
6 -5 -561 0
6 -5 -642 0
6 687 7 -612 0
6 7 -687 -741 0
-6 -7 0
741 -6 -687 0
612 687 -6 0
7 561 642 0
-7 -561 0
-7 -642 0
8 612 -9 0
8 9 -612 0
-8 -612 -9 0
612 9 -8 0
9 -573 -10 0
573 -9 0
10 -9 0
10 -11 -29 0
11 -10 0
29 -10 0
11 12 -688 0
11 671 12 0
-11 -12 0
688 -11 -671 0
12 13 -635 -688 0
12 687 13 -688 0
688 -12 0
-12 -13 0
635 -12 -687 0
13 674 687 14 0
13 687 14 -740 0
-13 -14 0
-13 -687 0
740 -13 -674 0
14 15 28 -740 0
14 -740 -15 -28 0
740 -14 0
28 -14 -15 0
15 -14 -28 0
15 16 26 0
-15 -16 0
-15 -26 0
16 601 17 0
-16 -601 0
-16 -17 0
17 18 24 0
-17 -18 0
-17 -24 0
18 686 19 0
-18 -686 0
-18 -19 0
19 20 22 0
-19 -20 0
-19 -22 0
20 652 21 0
-20 -652 0
-20 -21 0
21 -622 -726 0
21 743 -726 0
21 743 -622 0
726 -21 -743 0
622 726 -21 0
622 -21 -743 0
22 23 -744 0
744 -22 0
-22 -23 0
23 -652 -21 0
652 -23 0
21 -23 0
24 25 -574 0
574 -24 0
-24 -25 0
25 -686 -19 0
686 -25 0
19 -25 0
26 27 -707 0
707 -26 0
-26 -27 0
27 -601 -17 0
601 -27 0
17 -27 0
28 -552 -665 0
28 552 665 0
552 -28 -665 0
665 -28 -552 0
29 -30 -56 0
30 -29 0
56 -29 0
30 -31 -52 0
31 -30 0
52 -30 0
31 -32 -36 0
32 -31 0
36 -31 0
32 33 -688 0
32 737 33 0
-32 -33 0
688 -32 -737 0
33 34 -641 -688 0
33 687 34 -688 0
688 -33 0
-33 -34 0
641 -33 -687 0
34 590 687 35 0
34 687 35 -740 0
-34 -35 0
-34 -687 0
740 -34 -590 0
35 652 744 -740 -21 0
35 -652 -740 -744 -21 0
35 652 21 -740 -744 0
35 744 21 -652 -740 0
740 -35 0
744 -35 -652 -21 0
21 -35 -652 -744 0
652 744 21 -35 0
652 -35 -744 -21 0
36 -37 -48 0
37 -36 0
48 -36 0
37 -38 -45 0
38 -37 0
45 -37 0
38 39 42 0
-38 -39 0
-38 -42 0
39 40 -600 0
39 40 -688 0
-39 -40 0
600 688 -39 0
40 687 41 -688 0
40 727 41 -688 0
688 -40 0
-40 -41 0
-40 -687 -727 0
41 687 -602 -740 0
41 687 740 -712 0
-41 -687 0
602 -41 -740 0
712 740 -41 0
42 43 -688 0
42 43 -704 0
-42 -43 0
688 704 -42 0
43 687 44 -688 0
43 689 44 -688 0
688 -43 0
-43 -44 0
-43 -687 -689 0
44 687 740 -678 0
44 687 -724 -740 0
-44 -687 0
724 -44 -740 0
678 740 -44 0
45 -46 0
45 585 688 0
46 -45 -585 0
46 -45 -688 0
46 687 47 -688 0
46 748 47 -688 0
688 -46 0
-46 -47 0
-46 -687 -748 0
47 687 740 -557 0
47 687 -645 -740 0
-47 -687 0
645 -47 -740 0
557 740 -47 0
48 49 -688 0
48 680 49 0
-48 -49 0
688 -48 -680 0
49 50 -549 -688 0
49 687 50 -688 0
688 -49 0
-49 -50 0
549 -49 -687 0
50 687 706 51 0
50 687 51 -740 0
-50 -687 0
-50 -51 0
740 -50 -706 0
51 622 726 -740 -743 0
51 -622 -726 -740 -743 0
51 726 743 -622 -740 0
51 622 743 -726 -740 0
740 -51 0
622 -51 -726 -743 0
622 726 743 -51 0
743 -51 -622 -726 0
726 -51 -622 -743 0
52 53 -688 0
52 640 53 0
-52 -53 0
688 -52 -640 0
53 54 -616 -688 0
53 687 54 -688 0
688 -53 0
-53 -54 0
616 -53 -687 0
54 687 695 55 0
54 687 55 -740 0
-54 -687 0
-54 -55 0
740 -54 -695 0
55 -574 -740 -25 0
55 -574 -740 -18 0
55 574 18 25 -740 0
574 -55 -18 0
18 25 -55 -574 0
740 -55 0
574 -55 -25 0
56 57 -688 0
56 555 57 0
-56 -57 0
688 -56 -555 0
57 58 -591 -688 0
57 687 58 -688 0
688 -57 0
-57 -58 0
591 -57 -687 0
58 579 687 59 0
58 687 59 -740 0
-58 -59 0
-58 -687 0
740 -58 -579 0
59 -707 -740 -27 0
59 -707 -740 -16 0
59 707 16 27 -740 0
707 -59 -16 0
16 27 -59 -707 0
740 -59 0
707 -59 -27 0
60 -642 -9 -61 0
60 642 9 -61 0
61 -60 0
9 -60 -642 0
642 -60 -9 0
61 579 740 10 -62 0
61 579 -740 -10 -62 0
61 62 -579 -740 -10 0
61 740 10 62 -579 0
-61 -579 -62 0
579 62 -61 0
10 -61 -740 0
740 -61 -10 0
62 30 -56 0
62 56 -30 0
-62 -30 -56 0
30 56 -62 0
63 696 64 66 -67 0
63 64 -696 -66 -67 0
67 -63 0
696 -63 -66 0
-63 -64 0
66 -63 -696 0
64 -674 -65 0
64 674 65 0
674 -64 -65 0
65 -64 -674 0
65 11 -29 0
65 29 -11 0
-65 -11 -29 0
11 29 -65 0
66 5 -10 0
-66 -5 0
10 -66 0
67 671 -68 -71 0
67 11 -68 -71 0
71 -67 0
68 -67 0
-67 -671 -11 0
68 695 -69 -70 0
68 69 -695 -70 0
70 -68 0
695 69 -68 0
-68 -695 -69 0
69 31 -52 0
69 52 -31 0
-69 -31 -52 0
31 52 -69 0
70 555 12 0
70 56 -671 0
70 555 -671 0
70 12 56 0
-70 -555 -56 0
671 -70 -12 0
71 -555 -72 -189 0
71 57 -72 -189 0
189 -71 0
72 -71 0
555 -71 -57 0
72 -73 -92 -163 -187 0
187 -72 0
73 -72 0
163 -72 0
92 -72 0
73 74 90 -590 -91 0
73 590 74 -90 -91 0
-73 -74 0
-73 -590 -90 0
91 -73 0
590 90 -73 0
74 75 89 0
74 508 75 -575 0
74 575 75 -508 0
-74 -75 0
508 575 -74 -89 0
-74 -508 -575 -89 0
75 507 76 -506 0
75 507 697 -506 0
506 -75 0
-75 -507 0
-75 -697 -76 0
76 -632 -77 0
632 -76 0
77 -76 0
77 -575 -725 -78 0
575 -77 0
725 -77 0
78 -77 0
78 -643 -79 -82 0
643 -78 0
79 -78 0
82 -78 0
79 -581 -731 -80 -81 0
81 -79 0
581 -79 0
80 -79 0
731 -79 0
80 580 582 634 0
-80 -580 0
-80 -634 0
-80 -582 0
81 676 -685 0
-81 -676 0
685 -81 0
82 -506 -569 -83 0
506 -82 0
569 -82 0
83 -82 0
83 550 -84 0
-83 -550 0
84 -83 0
84 607 -85 0
-84 -607 0
85 -84 0
85 603 -86 0
-85 -603 0
86 -85 0
86 558 -87 0
-86 -558 0
87 -86 0
87 595 -88 0
-87 -595 0
88 -87 0
88 659 662 714 716 0
-88 -716 0
-88 -714 0
-88 -659 0
-88 -662 0
89 -522 -725 0
89 522 725 0
522 -89 -725 0
725 -89 -522 0
90 32 -36 0
90 36 -32 0
-90 -32 -36 0
32 36 -90 0
91 52 78 0
91 640 75 0
91 52 75 0
91 640 78 0
-91 -640 -52 0
-91 -78 -75 0
92 577 93 -110 0
92 -577 -93 -110 0
92 -577 -109 -110 0
110 -92 0
577 -92 -93 0
93 109 -92 -577 0
93 103 -94 0
93 -630 -94 -96 0
94 -93 0
630 -93 -103 0
96 -93 -103 0
94 550 -95 0
-94 -550 0
95 -94 0
95 507 -84 0
-95 -507 0
84 -95 0
96 79 97 100 0
-96 -79 0
-96 -100 0
-96 -97 0
97 98 -581 0
581 -97 0
-97 -98 0
98 -676 0
98 -509 -685 0
98 99 0
98 509 685 0
676 685 -98 -509 -99 0
509 676 -98 -685 -99 0
99 731 -80 0
-99 -731 0
80 -99 0
100 -80 -101 0
80 -100 0
101 -100 0
101 -676 -685 -102 0
676 -101 0
685 -101 0
102 -101 0
102 -581 -667 0
581 -102 0
667 -102 0
103 525 104 -107 0
103 104 106 -107 0
107 -103 0
-103 -104 0
-103 -525 -106 0
104 98 -105 0
-104 -98 0
105 -104 0
105 667 -581 0
581 -105 0
-105 -667 0
106 -731 -100 0
731 -106 0
100 -106 0
107 79 108 0
107 524 526 0
107 526 108 0
107 524 79 0
-107 -526 -79 0
-107 -524 -108 0
108 -99 -101 0
99 -108 0
101 -108 0
109 507 83 0
-109 -507 0
-109 -83 0
110 83 115 -604 0
110 604 -111 -115 0
110 604 83 -115 0
110 115 -604 -111 0
-110 -604 -115 0
604 115 -110 0
111 -110 -83 0
111 112 -605 0
111 113 -615 0
111 -605 -615 0
111 112 113 0
605 -111 -113 0
615 -111 -112 0
112 507 -597 0
112 507 83 0
-112 -507 0
597 -112 -83 0
113 507 114 0
-113 -507 0
-113 -114 0
114 581 -83 0
-114 -581 0
83 -114 0
115 -122 -142 0
115 -116 -142 0
142 -115 0
116 122 -115 0
116 120 -117 0
116 583 120 0
-116 -120 0
117 -116 -583 0
117 118 119 0
-117 -118 0
-117 -119 0
118 687 696 0
-118 -687 0
-118 -696 0
119 696 753 0
119 564 675 753 0
-119 -753 0
-119 -675 -696 0
-119 -564 -696 0
120 119 121 0
-120 -119 0
-120 -121 0
121 687 696 0
121 584 -687 0
121 604 687 0
-121 -584 -687 0
687 -121 -604 -696 0
122 123 -128 0
-122 -123 0
128 -122 0
123 -124 -125 0
123 567 -125 0
125 -123 0
124 -123 -567 0
124 -696 0
124 -599 -687 0
599 696 -124 0
687 696 -124 0
125 126 127 0
125 559 598 0
125 598 127 0
125 559 126 0
-125 -598 -126 0
-125 -559 -127 0
126 687 -696 0
-126 -687 0
696 -126 0
127 -599 -687 0
127 -687 -696 0
687 -127 0
599 696 -127 0
128 129 -131 0
-128 -129 0
131 -128 0
129 -124 -130 0
129 683 -130 0
130 -129 0
124 -129 -683 0
130 698 126 0
130 684 127 0
130 126 127 0
130 684 698 0
-130 -684 -126 0
-130 -698 -127 0
131 -132 -137 0
132 -131 0
137 -131 0
132 133 135 0
-132 -133 0
-132 -135 0
133 -124 -134 0
133 589 -134 0
134 -133 0
124 -133 -589 0
134 663 126 0
134 556 127 0
134 126 127 0
134 556 663 0
-134 -556 -126 0
-134 -663 -127 0
135 -124 -136 0
135 648 -136 0
136 -135 0
124 -135 -648 0
136 733 126 0
136 694 127 0
136 126 127 0
136 694 733 0
-136 -694 -126 0
-136 -733 -127 0
137 138 140 0
-137 -138 0
-137 -140 0
138 -124 -139 0
138 739 -139 0
139 -138 0
124 -138 -739 0
139 711 126 0
139 670 127 0
139 126 127 0
139 670 711 0
-139 -670 -126 0
-139 -711 -127 0
140 -124 -141 0
140 617 -141 0
141 -140 0
124 -140 -617 0
141 126 127 0
141 629 738 0
141 738 127 0
141 629 126 0
-141 -738 -126 0
-141 -629 -127 0
142 143 154 -161 0
142 143 154 159 0
-142 -143 0
-142 -154 0
161 -142 -159 0
143 -116 -144 -148 -152 0
152 -143 0
116 -143 0
148 -143 0
144 -143 0
144 -145 -146 0
144 720 -146 0
146 -144 0
145 -144 -720 0
145 -696 0
145 -687 -754 0
696 754 -145 0
687 696 -145 0
146 126 147 0
146 566 690 0
146 690 147 0
146 566 126 0
-146 -690 -126 0
-146 -566 -147 0
147 -687 -696 0
147 -687 -754 0
687 -147 0
696 754 -147 0
148 151 -149 0
148 -677 -687 -149 0
149 -148 0
677 -148 -151 0
687 -148 -151 0
149 150 -624 0
149 126 150 0
-149 -150 0
624 -149 -126 0
150 699 -677 -687 0
150 699 -687 -696 0
687 -150 0
-150 -699 0
677 696 -150 0
151 628 696 0
-151 -628 0
-151 -696 0
152 -145 -153 0
152 710 -153 0
153 -152 0
145 -152 -710 0
153 126 147 0
153 701 742 0
153 742 147 0
153 701 126 0
-153 -742 -126 0
-153 -701 -147 0
154 157 -155 0
155 -154 0
-154 -157 0
155 -145 -156 0
155 732 -156 0
156 -155 0
145 -155 -732 0
156 126 147 0
156 565 666 0
156 666 147 0
156 565 126 0
-156 -666 -126 0
-156 -565 -147 0
157 -145 -158 0
157 563 -158 0
158 -157 0
145 -157 -563 0
158 693 126 0
158 613 147 0
158 126 147 0
158 613 693 0
-158 -613 -126 0
-158 -693 -147 0
159 -145 -160 0
159 548 -160 0
160 -159 0
145 -159 -548 0
160 126 147 0
160 553 681 0
160 681 147 0
160 553 126 0
-160 -681 -126 0
-160 -553 -147 0
161 -145 -162 0
161 609 -162 0
162 -161 0
145 -161 -609 0
162 633 126 0
162 551 147 0
162 126 147 0
162 551 633 0
-162 -551 -126 0
-162 -633 -147 0
163 -667 -164 -182 0
163 667 177 -164 0
163 -667 -164 -177 0
164 -163 0
667 -163 -177 0
177 182 -163 -667 0
164 -165 -174 0
164 507 86 -174 0
174 -164 0
165 -164 -86 0
165 -164 -507 0
165 603 -507 0
165 603 607 166 0
-165 -603 0
507 -165 -166 0
507 -165 -607 0
166 167 -513 0
513 -166 0
-166 -167 0
167 515 -168 0
-167 -515 0
168 -167 0
168 514 -169 0
-168 -514 0
169 -168 0
169 516 -170 0
-169 -516 0
170 -169 0
170 512 -171 0
-170 -512 0
171 -170 0
171 510 511 172 0
-171 -510 0
-171 -172 0
-171 -511 0
172 510 512 -173 0
173 -172 0
-172 -512 0
-172 -510 0
173 513 514 515 516 0
-173 -516 0
-173 -515 0
-173 -513 0
-173 -514 0
174 731 -176 0
174 -109 -176 0
174 -175 -176 0
176 -174 0
109 175 -174 -731 0
175 507 -586 -83 0
83 -175 0
586 -175 0
-175 -507 0
176 -637 -113 0
176 637 113 0
176 83 -113 0
113 -176 -637 0
637 -176 -83 -113 0
177 -102 -179 0
177 -114 -178 -179 0
179 -177 0
102 178 -177 0
102 114 -177 0
178 615 -594 0
594 -178 0
-178 -615 0
179 507 180 0
-179 -507 0
-179 -180 0
180 181 178 -571 0
180 746 181 178 0
-180 -178 0
-180 -181 0
571 -180 -746 0
181 581 586 605 -569 0
-181 -605 0
-181 -586 0
569 -181 0
-181 -581 0
182 507 83 0
182 507 183 -180 0
-182 -507 0
180 -182 -83 0
-182 -83 -183 0
183 -685 -184 0
685 -183 0
184 -183 0
184 -676 -185 0
676 -184 0
185 -184 0
185 -731 -186 0
731 -185 0
186 -185 0
186 -580 -582 -634 0
580 -186 0
582 -186 0
634 -186 0
187 75 188 0
187 82 -75 0
187 79 -75 0
75 -187 -188 0
-187 -79 -82 -75 0
188 543 -643 0
188 643 -543 0
-188 -543 -643 0
543 643 -188 0
189 -190 -195 -473 -483 0
483 -189 0
190 -189 0
473 -189 0
195 -189 0
190 697 193 -191 0
190 191 192 193 0
-190 -193 0
191 -190 -192 0
-190 -697 -191 0
191 533 75 0
-191 -533 0
-191 -75 0
192 697 -507 0
192 697 -76 0
192 506 697 0
-192 -697 0
507 76 -192 -506 0
193 194 -507 0
193 194 -77 0
193 506 194 0
-193 -194 0
507 77 -193 -506 0
194 75 -530 -632 0
194 530 632 75 0
-194 -75 0
632 -194 -530 0
530 -194 -632 0
195 -196 -234 -250 -254 0
254 -195 0
196 -195 0
250 -195 0
234 -195 0
196 -197 -214 -219 -229 0
229 -196 0
197 -196 0
219 -196 0
214 -196 0
197 205 -619 -198 0
197 205 210 -198 0
198 -197 0
-197 -205 0
619 -197 -210 0
198 202 -109 0
198 202 -199 0
198 682 202 0
-198 -202 0
109 199 -198 -682 0
199 200 -94 0
199 -540 -94 -96 0
94 -199 0
540 -199 -200 0
96 -199 -200 0
200 97 -201 0
200 575 -201 0
201 -200 0
-200 -575 -97 0
201 106 108 0
201 541 542 0
201 542 108 0
201 541 106 0
-201 -542 -106 0
-201 -541 -108 0
202 -571 -203 0
571 -202 0
203 -202 0
203 109 204 0
-203 -109 0
-203 -204 0
204 -646 -94 0
646 -204 0
94 -204 0
205 662 -206 0
205 662 716 -208 0
-205 -662 0
206 -205 -716 0
206 208 -205 0
206 507 207 0
206 507 84 0
-206 -507 0
-206 -84 -207 0
207 510 171 0
207 511 171 0
-207 -171 0
-207 -510 -511 0
208 507 209 0
208 507 84 0
-208 -507 0
-208 -84 -209 0
209 512 170 0
209 510 511 170 0
-209 -170 0
-209 -511 -512 0
-209 -510 -512 0
210 211 -94 0
210 -730 -94 -96 0
94 -210 0
730 -210 -211 0
96 -210 -211 0
211 544 212 213 0
211 212 108 213 0
-211 -213 0
-211 -212 0
-211 -544 -108 0
212 -643 -79 0
643 -212 0
79 -212 0
213 -545 -106 0
545 -213 0
106 -213 0
214 217 -208 -215 0
214 714 217 -215 0
215 -214 0
-214 -217 0
208 -214 -714 0
215 670 114 216 0
215 114 -670 -216 0
215 179 -670 -216 0
215 670 179 216 0
670 -215 -216 0
216 -215 -670 0
-215 -114 -179 0
216 138 144 -140 0
216 140 144 -138 0
-216 -144 0
138 140 -216 0
-216 -138 -140 0
217 685 -218 -175 0
217 685 -175 -184 0
-217 -685 0
175 -217 0
218 184 -217 0
218 676 -509 -99 0
509 -218 0
-218 -676 0
99 -218 0
219 220 221 -557 -222 0
219 557 220 -221 -222 0
-219 -220 0
-219 -557 -221 0
222 -219 0
557 221 -219 0
220 206 -716 0
716 -220 0
-220 -206 0
221 38 -45 0
221 45 -38 0
-221 -38 -45 0
38 45 -221 0
222 745 223 -109 0
222 -745 -223 -226 0
222 745 223 -226 0
222 -745 -109 -223 0
223 -222 -745 0
745 -222 -223 0
109 226 -222 0
223 -129 -133 -135 -224 0
224 -223 0
129 -223 0
135 -223 0
133 -223 0
224 -509 -123 -225 0
509 -224 0
123 -224 0
225 -224 0
225 -138 -140 0
138 -225 0
140 -225 0
226 582 718 227 228 0
226 582 227 -718 -228 0
-226 -227 0
228 -226 -718 0
-226 -582 0
718 -226 -228 0
227 507 -586 0
-227 -507 0
586 -227 0
228 507 -751 0
-228 -507 0
751 -228 0
229 619 -230 0
229 -109 -230 0
229 -210 -230 0
230 -229 0
109 210 -229 -619 0
230 186 -231 0
230 175 -231 0
231 -230 0
-230 -175 -186 0
231 659 233 0
231 232 -233 0
-231 -232 -233 0
233 -231 -659 0
232 662 714 716 0
-232 -662 0
-232 -716 0
-232 -714 0
233 507 84 0
233 507 170 -516 0
233 507 516 -170 0
-233 -507 0
516 170 -233 -84 0
-233 -516 -84 -170 0
234 241 -588 -235 0
234 241 246 -235 0
235 -234 0
-234 -241 0
588 -234 -246 0
235 240 -109 0
235 240 -236 0
235 630 240 0
-235 -240 0
109 236 -235 -630 0
236 237 -94 0
236 -588 -94 -96 0
94 -236 0
588 -236 -237 0
96 -236 -237 0
237 106 238 -239 0
237 532 238 -239 0
239 -237 0
-237 -238 0
-237 -532 -106 0
238 98 -102 0
-238 -98 0
102 -238 0
239 531 79 0
239 529 108 0
239 79 108 0
239 529 531 0
-239 -529 -79 0
-239 -531 -108 0
240 -737 -32 0
737 -240 0
32 -240 0
241 109 242 -736 0
736 -241 0
-241 -242 0
-241 -109 0
242 243 -94 0
242 -610 -94 -96 0
94 -242 0
610 -242 -243 0
96 -242 -243 0
243 97 244 -245 0
243 632 244 -245 0
245 -243 0
-243 -244 0
-243 -632 -97 0
244 -537 -106 0
537 -244 0
106 -244 0
245 536 79 0
245 528 108 0
245 79 108 0
245 528 536 0
-245 -528 -79 0
-245 -536 -108 0
246 247 -94 0
246 -736 -94 -96 0
94 -246 0
736 -246 -247 0
96 -246 -247 0
247 97 248 -249 0
247 697 248 -249 0
249 -247 0
-247 -248 0
-247 -697 -97 0
248 -535 -106 0
535 -248 0
106 -248 0
249 534 79 0
249 527 108 0
249 79 108 0
249 527 534 0
-249 -527 -79 0
-249 -534 -108 0
250 87 -251 -253 0
250 558 253 -251 0
251 -250 0
253 -250 -558 0
-250 -87 -253 0
251 706 242 -252 0
251 252 -706 -736 0
251 706 -736 -252 0
251 242 252 -706 0
-251 -706 -252 0
706 252 -251 0
736 -251 -242 0
252 37 -48 0
252 48 -37 0
-252 -37 -48 0
37 48 -252 0
253 507 84 0
253 507 168 -515 0
253 507 515 -168 0
-253 -507 0
515 168 -253 -84 0
-253 -515 -84 -168 0
254 -255 -278 -462 -470 0
470 -254 0
255 -254 0
462 -254 0
278 -254 0
255 -256 -272 -274 -275 0
275 -255 0
256 -255 0
274 -255 0
272 -255 0
256 262 264 -257 -266 0
266 -256 0
-256 -264 0
257 -256 0
-256 -262 0
257 261 -746 -258 0
257 204 261 -258 0
258 -257 0
-257 -261 0
746 -257 -204 0
258 556 747 0
258 -113 -259 0
258 747 -259 0
258 556 -113 0
113 -258 -747 0
259 -258 -556 0
259 133 -135 -260 0
259 133 137 -260 0
259 135 -133 -137 -260 0
-259 -133 -135 0
137 -259 -133 0
260 -259 0
133 135 -259 -137 0
260 144 223 0
-260 -144 0
-260 -223 0
261 586 -83 -113 0
113 -261 0
83 -261 0
-261 -586 0
262 -507 -581 0
262 263 -581 -83 0
581 -262 0
507 -262 -263 0
507 83 -262 0
263 183 -747 0
263 180 -747 0
747 -263 0
-263 -180 -183 0
264 109 265 -751 0
751 -264 0
-264 -265 0
-264 -109 0
265 -94 -105 -183 0
94 -265 0
105 -265 0
183 -265 0
266 -730 -267 0
266 595 268 0
266 595 -730 0
266 268 -267 0
267 -266 -595 0
730 -266 -268 0
267 507 84 0
267 507 169 -514 0
267 507 514 -169 0
-267 -507 0
514 169 -267 -84 0
-267 -514 -84 -169 0
268 -94 -97 0
268 269 -94 0
94 -268 0
97 -268 -269 0
269 520 -79 0
269 79 -270 0
-269 -520 -79 0
79 270 -269 0
270 -100 -271 0
270 577 100 0
271 -270 -100 0
100 -270 -577 0
271 519 731 0
271 518 -731 0
731 -271 -519 0
-271 -518 -731 0
272 694 273 -556 0
272 259 -694 -273 0
272 -556 -694 -273 0
272 694 259 273 0
694 -272 -273 0
273 -272 -694 0
556 -272 -259 0
273 144 -135 -137 0
273 135 137 144 0
-273 -144 0
137 -273 -135 0
135 -273 -137 0
274 267 -675 -122 0
274 675 122 267 0
274 88 -675 -122 0
274 675 88 122 0
122 -274 -675 0
675 -274 -122 0
-274 -88 -267 0
275 142 276 -564 -277 0
275 564 276 -142 -277 0
277 -275 0
564 142 -275 0
-275 -276 0
-275 -564 -142 0
276 109 268 -730 0
730 -276 0
-276 -268 0
-276 -109 0
277 33 -571 0
277 204 -737 0
277 -571 -737 0
277 33 204 0
571 -277 -204 0
737 -277 -33 0
278 -279 -286 -290 -324 0
324 -278 0
279 -278 0
290 -278 0
286 -278 0
279 586 -280 -281 0
279 -113 -280 -281 0
281 -279 0
280 -279 0
113 -279 -586 0
280 48 95 0
280 650 680 0
280 680 95 0
280 650 48 0
-280 -680 -48 0
-280 -650 -95 0
281 678 -722 -282 -283 0
281 678 722 283 -282 0
281 282 -678 -722 -283 0
281 722 282 283 -678 0
-281 -678 -282 0
678 282 -281 0
722 -281 -283 0
283 -281 -722 0
282 39 -42 0
282 42 -39 0
-282 -39 -42 0
39 42 -282 0
283 507 284 -152 0
-283 -507 0
152 -283 0
-283 -284 0
284 -145 -285 0
284 621 -285 0
285 -284 0
145 -284 -621 0
285 126 147 0
285 638 702 0
285 702 147 0
285 638 126 0
-285 -702 -126 0
-285 -638 -147 0
286 287 -109 0
286 287 -288 0
286 709 287 0
-286 -287 0
109 288 -286 -709 0
287 594 -597 -94 0
287 594 83 -94 0
-287 -594 0
94 -287 0
597 -287 -83 0
288 -94 -105 -186 -289 0
289 -288 0
94 -288 0
186 -288 0
105 -288 0
289 731 -676 -685 0
676 -289 0
685 -289 0
-289 -731 0
290 319 -291 -299 -320 0
320 -290 0
291 -290 0
299 -290 0
-290 -319 0
291 49 292 -293 0
291 292 -680 -293 0
293 -291 0
-291 -292 0
680 -291 -49 0
292 -507 -607 0
292 -607 -85 0
607 -292 0
507 85 -292 0
293 645 -668 -209 -294 0
293 645 668 294 -209 0
293 209 -645 -668 -294 0
293 668 209 294 -645 0
-293 -645 -209 0
645 209 -293 0
668 -293 -294 0
294 -293 -668 0
294 507 295 0
-294 -507 0
-294 -295 0
295 627 -296 0
295 -296 -298 0
296 -295 0
298 -295 -627 0
296 126 297 0
296 606 636 0
296 636 297 0
296 606 126 0
-296 -636 -126 0
-296 -606 -297 0
297 -654 -687 0
297 -687 -696 0
687 -297 0
654 696 -297 0
298 -696 0
298 -654 -687 0
654 696 -298 0
687 696 -298 0
299 315 -573 -300 -312 0
299 573 312 315 -300 0
-299 -315 0
312 -299 -573 0
300 -299 0
573 -299 -312 0
300 732 -301 -302 0
300 155 -301 -302 0
302 -300 0
301 -300 0
-300 -732 -155 0
301 627 161 0
301 609 295 0
301 161 295 0
301 609 627 0
-301 -609 -161 0
-301 -627 -295 0
302 308 -600 -303 0
302 39 308 -303 0
303 -302 0
-302 -308 0
600 -302 -39 0
303 589 -305 0
303 133 304 0
303 133 -305 0
303 589 304 0
-303 -589 -133 0
305 -303 -304 0
304 718 -715 0
715 -304 0
-304 -718 0
305 306 -735 0
305 307 -554 0
305 -554 -735 0
305 306 307 0
735 -305 -307 0
554 -305 -306 0
306 507 -619 0
306 507 304 0
-306 -507 0
619 -306 -304 0
307 507 -610 0
307 507 304 0
-307 -507 0
610 -307 -304 0
308 309 -507 -623 0
308 736 -623 -309 0
623 -308 0
-308 -736 -309 0
507 309 -308 0
309 520 526 -310 -311 0
-309 -520 0
311 -309 0
310 -309 0
-309 -526 0
310 527 529 -528 0
-310 -527 0
528 -310 0
-310 -529 0
311 507 -718 0
-311 -507 0
718 -311 0
312 507 313 0
-312 -507 0
-312 -313 0
313 -298 -314 0
313 647 -314 0
314 -313 0
298 -313 -647 0
314 631 126 0
314 587 297 0
314 126 297 0
314 587 631 0
-314 -587 -126 0
-314 -631 -297 0
315 660 316 -317 0
315 316 317 -660 -117 0
117 317 -315 0
-315 -660 -317 0
-315 -316 0
660 317 -315 0
316 620 753 -564 0
564 -316 0
-316 -753 0
-316 -620 0
317 119 318 0
-317 -119 0
-317 -318 0
318 692 -687 0
318 687 691 0
318 687 696 0
-318 -687 -692 0
687 -318 -691 -696 0
319 634 -582 -175 0
582 -319 0
-319 -634 0
175 -319 0
320 116 323 -587 -321 0
320 587 323 -116 -321 0
-320 -323 0
587 116 -320 0
321 -320 0
-320 -587 -116 0
321 738 322 -620 -116 0
321 620 116 -738 -322 0
321 620 738 116 322 0
321 -620 -738 -116 -322 0
116 -321 -620 0
620 -321 -116 0
738 -321 -322 0
322 -321 -738 0
322 144 -140 0
140 -322 0
-322 -144 0
323 -724 -207 0
323 724 207 0
724 -323 -207 0
207 -323 -724 0
324 -325 -344 -368 -392 0
392 -324 0
325 -324 0
368 -324 0
344 -324 0
325 -662 -326 -342 0
325 -95 -326 -342 0
342 -325 0
326 -325 0
662 95 -325 0
326 340 341 -327 -330 0
330 -326 0
-326 -341 0
327 -326 0
-326 -340 0
327 726 170 328 -329 0
327 328 -726 -170 -329 0
-327 -328 0
726 -327 -170 0
329 -327 0
170 -327 -726 0
328 621 285 0
328 -621 -145 -285 0
145 -328 -621 0
621 -328 -285 0
285 -328 -621 0
329 39 -712 -116 0
329 712 -39 -116 0
329 712 -690 -39 0
329 39 -690 -712 0
-329 -712 -39 0
712 39 -329 0
690 116 -329 0
330 -720 -331 -337 0
330 -146 -331 -337 0
337 -330 0
331 -330 0
720 146 -330 0
331 -628 -332 0
331 148 311 0
331 311 -628 0
331 148 -332 0
628 -331 -148 0
332 -331 -311 0
332 335 -333 -336 0
332 335 -576 -333 0
333 -332 0
-332 -335 0
576 336 -332 0
333 334 -752 0
333 730 334 -718 0
-333 -334 0
752 -333 -730 0
718 752 -333 0
334 700 718 0
334 700 -577 0
-334 -700 0
577 -334 -718 0
335 679 718 0
335 679 -619 0
-335 -679 0
619 -335 -718 0
336 736 -718 0
718 -336 0
-336 -736 0
337 339 -732 -338 0
337 339 -156 -338 0
338 -337 0
-337 -339 0
732 156 -337 0
338 -609 -130 0
338 -683 -162 0
338 -609 -683 0
338 -130 -162 0
683 130 -338 0
609 162 -338 0
339 627 296 0
-339 -627 0
-339 -296 0
340 -742 -116 0
340 -702 -116 0
116 -340 0
702 742 -340 0
341 -585 -46 0
341 585 46 -688 0
688 46 -341 0
585 -341 -46 0
46 -341 -585 0
342 583 343 -116 0
342 116 343 -742 0
-342 -343 0
-342 -583 -116 0
742 116 -342 0
343 651 -144 0
343 144 -651 0
-343 -651 -144 0
651 144 -343 0
344 -345 -360 -361 -362 0
362 -344 0
345 -344 0
361 -344 0
360 -344 0
345 -346 -350 -351 -358 0
358 -345 0
346 -345 0
351 -345 0
350 -345 0
346 602 347 -348 0
346 -507 -602 -347 0
346 602 347 -507 0
347 -346 -602 0
507 348 -346 0
507 -346 -602 0
602 -346 -347 0
347 511 172 0
-347 -511 0
-347 -172 0
348 662 304 0
348 662 -349 0
-348 -662 0
349 -348 -304 0
349 -705 -717 0
349 630 730 0
349 630 -705 0
349 730 -717 0
717 -349 -630 0
705 -349 -730 0
350 138 140 0
350 617 739 0
350 739 140 0
350 617 138 0
-350 -739 -138 0
-350 -617 -140 0
351 548 -352 -356 0
351 159 -352 -356 0
356 -351 0
352 -351 0
-351 -548 -159 0
352 353 -658 -355 0
352 658 353 355 0
-352 -353 0
355 -352 -658 0
658 -352 -355 0
353 354 -673 0
353 608 673 -639 -354 0
673 -353 -608 0
-353 -673 -354 0
639 -353 -354 0
673 354 -353 0
354 507 722 0
-354 -507 0
-354 -722 0
355 507 547 0
355 507 -619 0
-355 -507 0
619 -355 -547 0
356 -593 -713 -357 0
356 593 713 357 0
357 -356 -713 0
593 -356 -357 0
713 -356 -593 0
357 507 605 -637 0
637 -357 0
-357 -605 0
-357 -507 0
358 648 359 0
358 135 359 0
-358 -359 0
-358 -648 -135 0
359 708 -6 0
359 6 -561 -708 0
359 6 -642 -708 0
708 6 -359 0
-359 -708 -6 0
561 642 6 -359 0
360 144 313 0
360 647 720 0
360 720 313 0
360 647 144 0
-360 -720 -144 0
-360 -647 -313 0
361 683 123 0
361 567 129 0
361 123 129 0
361 567 683 0
-361 -567 -123 0
-361 -683 -129 0
362 152 363 -367 0
362 710 363 -367 0
367 -362 0
-362 -363 0
-362 -710 -152 0
363 -304 -364 0
363 655 -304 -366 0
304 -363 0
364 -363 -655 0
364 366 -363 0
364 656 -365 0
-364 -656 0
365 -364 0
365 507 -577 0
365 507 304 0
-365 -507 0
577 -365 -304 0
366 507 -736 0
366 507 304 0
-366 -507 0
736 -366 -304 0
367 563 42 0
367 157 -704 0
367 563 -704 0
367 42 157 0
-367 -563 -157 0
704 -367 -42 0
368 -369 -370 -371 -386 0
386 -368 0
369 -368 0
371 -368 0
370 -368 0
369 -648 -134 0
369 -589 -136 0
369 -589 -648 0
369 -134 -136 0
648 136 -369 0
589 134 -369 0
370 120 -563 0
370 -583 -158 0
370 -563 -583 0
370 120 -158 0
583 -370 -120 0
563 158 -370 0
371 -548 -372 -382 0
371 -160 -372 -382 0
382 -371 0
372 -371 0
548 160 -371 0
372 374 375 -373 -376 0
376 -372 0
-372 -375 0
373 -372 0
-372 -374 0
373 610 649 0
373 507 -610 -649 0
373 649 -507 0
373 507 718 0
-373 -507 -649 0
610 -373 -649 -718 0
507 649 -373 -610 -718 0
374 -507 -576 0
374 736 -576 -718 0
576 -374 0
507 -374 -736 0
507 718 -374 0
375 -507 -700 0
375 577 -700 -718 0
700 -375 0
507 -375 -577 0
507 718 -375 0
376 380 -618 -377 -381 0
376 618 380 381 -377 0
-376 -380 0
618 -376 -381 0
377 -376 0
381 -376 -618 0
377 378 -664 0
377 729 378 379 0
-377 -378 0
664 -377 -379 0
664 -377 -729 0
378 -507 -679 0
378 619 -679 -718 0
679 -378 0
507 -378 -619 0
507 718 -378 0
379 507 -523 0
-379 -507 0
523 -379 0
380 -507 -728 0
380 588 -718 -728 0
728 -380 0
507 -380 -588 0
507 718 -380 0
381 507 -517 0
-381 -507 0
517 -381 0
382 568 639 383 -384 0
382 -568 -639 -383 -384 0
383 -382 -639 0
568 -382 -383 0
384 -382 0
639 -382 -568 0
383 507 -521 0
-383 -507 0
521 -383 0
384 664 385 0
384 385 -729 -379 0
-384 -385 0
729 -384 -664 0
379 -384 -664 0
385 -507 -752 0
385 730 -718 -752 0
752 -385 0
507 718 -385 0
507 -385 -730 0
386 -387 -388 -389 -390 0
390 -386 0
387 -386 0
389 -386 0
388 -386 0
387 -647 -139 0
387 -739 -314 0
387 -647 -739 0
387 -139 -314 0
739 139 -387 0
647 314 -387 0
388 -710 -125 0
388 -567 -153 0
388 -567 -710 0
388 -125 -153 0
710 153 -388 0
567 125 -388 0
389 40 -617 0
389 600 -141 0
389 600 -617 0
389 40 -141 0
617 141 -389 0
-389 -600 -40 0
390 43 391 0
390 704 -623 0
390 704 391 0
390 43 -623 0
-390 -704 -43 0
623 -390 -391 0
391 -736 -309 0
736 -391 0
309 -391 0
392 -393 -399 -402 -412 0
412 -392 0
393 -392 0
402 -392 0
399 -392 0
393 398 -149 -394 0
393 628 398 -394 0
394 -393 0
-393 -398 0
149 -393 -628 0
394 395 -703 -397 0
394 703 395 397 0
-394 -395 0
397 -394 -703 0
703 -394 -397 0
395 396 -625 0
395 569 625 -618 -396 0
625 -395 -569 0
-395 -625 -396 0
618 -395 -396 0
625 396 -395 0
396 507 593 0
-396 -507 0
-396 -593 0
397 596 -311 0
-397 -596 0
311 -397 0
398 507 570 -588 -304 0
-398 -507 0
304 -398 0
588 -398 0
-398 -570 0
399 669 355 400 -401 0
399 400 -669 -355 -401 0
-399 -400 0
669 -399 -355 0
401 -399 0
355 -399 -669 0
400 354 -578 0
400 578 664 -626 -354 0
-400 -664 -354 0
578 354 -400 0
-400 -578 -354 0
578 626 -400 0
401 655 656 0
401 -365 -366 0
401 656 -366 0
401 655 -365 0
365 -401 -656 0
366 -401 -655 0
402 410 411 -403 -407 0
407 -402 0
-402 -411 0
403 -402 0
-402 -410 0
403 406 -306 -404 0
403 554 406 -404 0
404 -403 0
-403 -406 0
306 -403 -554 0
404 570 735 0
404 -307 -405 0
404 735 -405 0
404 570 -307 0
307 -404 -735 0
405 -404 -570 0
405 507 -588 0
405 507 304 0
-405 -507 0
588 -405 -304 0
406 396 -646 0
406 646 729 -750 -396 0
646 -406 -729 0
-406 -646 -396 0
750 -406 -396 0
646 396 -406 0
407 592 718 409 0
407 409 -592 -408 0
407 592 408 409 0
-407 -409 0
408 -407 -592 0
592 -407 -718 -408 0
408 507 -682 0
408 507 718 0
-408 -507 0
682 -408 -718 0
409 507 611 -682 -304 0
-409 -507 0
304 -409 0
682 -409 0
-409 -611 0
410 -507 -717 0
410 630 -717 -304 0
717 -410 0
507 -410 -630 0
507 304 -410 0
411 -507 -705 0
411 730 -705 -304 0
705 -411 0
507 304 -411 0
507 -411 -730 0
412 -413 -429 -433 -442 0
442 -412 0
413 -412 0
433 -412 0
429 -412 0
413 -414 -418 -423 -426 0
426 -413 0
414 -413 0
423 -413 0
418 -413 0
414 397 -415 -416 -417 0
-414 -397 0
417 -414 0
416 -414 0
415 -414 0
415 698 699 701 711 0
-415 -711 0
-415 -701 0
-415 -698 0
-415 -699 0
416 689 692 693 -688 0
-416 -693 0
-416 -692 0
688 -416 0
-416 -689 0
417 733 741 748 -727 0
-417 -748 0
-417 -741 0
727 -417 0
-417 -733 0
418 -419 -420 -421 -422 0
422 -418 0
419 -418 0
421 -418 0
420 -418 0
419 616 622 629 631 0
-419 -631 0
-419 -629 0
-419 -616 0
-419 -622 0
420 584 591 601 606 0
-420 -606 0
-420 -601 0
-420 -584 0
-420 -591 0
421 652 663 665 686 0
-421 -686 0
-421 -665 0
-421 -652 0
-421 -663 0
422 633 635 638 641 0
-422 -641 0
-422 -638 0
-422 -633 0
-422 -635 0
423 613 673 425 -424 0
423 425 -613 -673 -424 0
-423 -425 0
673 -423 -613 0
424 -423 0
613 -423 -673 0
424 379 -513 -707 0
424 513 707 379 0
424 513 707 -626 0
424 -513 -626 -707 0
707 -424 -513 0
513 -424 -707 0
626 -424 -379 0
425 644 -646 0
425 646 -644 0
-425 -644 -646 0
644 646 -425 0
426 673 755 427 -428 0
426 427 -673 -755 -428 0
-426 -427 0
673 -426 -755 0
428 -426 0
755 -426 -673 0
427 381 -657 0
657 -427 0
-427 -381 0
428 626 -593 -661 0
428 593 626 661 0
428 593 661 -379 0
428 -593 -661 -379 0
661 -428 -593 0
593 -428 -661 0
379 -428 -626 0
429 672 718 -431 0
429 -672 -430 -431 0
429 672 430 -431 0
431 -429 0
430 -429 -672 0
672 -429 -718 -430 0
430 507 -630 0
430 507 718 0
-430 -507 0
630 -430 -718 0
431 -653 -734 -432 0
431 653 734 432 0
432 -431 -734 0
653 -431 -432 0
734 -431 -653 0
432 507 -562 0
-432 -507 0
562 -432 0
433 -434 -436 -437 -438 0
438 -433 0
434 -433 0
437 -433 0
436 -433 0
434 507 561 -435 0
434 -507 -599 -435 0
435 -434 0
507 -434 -561 0
599 -434 -507 0
435 -551 -560 0
435 560 578 0
551 -435 -560 0
560 -435 -578 0
436 553 559 565 566 0
-436 -566 0
-436 -565 0
-436 -553 0
-436 -559 0
437 549 552 -702 0
437 549 552 690 0
-437 -549 0
-437 -552 0
702 -437 -690 0
438 578 681 -439 -441 0
438 -578 -681 -439 -441 0
441 -438 0
681 -438 -578 0
439 -438 0
578 -438 -681 0
439 -578 -440 0
439 551 -440 0
440 -439 0
578 -439 -551 0
440 749 -572 0
440 750 -608 0
440 -572 -608 0
440 749 750 0
572 -440 -750 0
608 -440 -749 0
441 550 -561 0
441 507 599 0
441 550 599 0
441 507 -561 0
-441 -507 -550 0
561 -441 -599 0
442 -443 -445 -448 -451 0
451 -442 0
443 -442 0
448 -442 0
445 -442 0
443 588 -444 0
443 -728 -444 0
443 311 -444 0
444 -443 0
728 -443 -588 -311 0
444 515 574 -514 -744 0
444 -514 -515 -574 -744 0
444 514 515 574 744 0
444 514 744 -515 -574 0
514 -444 -744 0
744 -444 -514 0
574 -444 -515 0
515 -444 -574 0
445 447 -383 -446 0
445 608 447 -446 0
446 -445 0
-445 -447 0
383 -445 -608 0
446 379 -657 0
446 381 -750 0
446 -657 -750 0
446 379 381 0
657 -446 -381 0
750 -446 -379 0
447 379 -572 0
572 -447 0
-447 -379 0
448 450 -449 0
448 611 450 0
-448 -450 0
449 -448 -611 0
449 507 -682 0
449 507 304 0
-449 -507 0
682 -449 -304 0
450 396 -597 0
450 568 597 -749 -396 0
597 749 -450 0
-450 -597 -396 0
597 396 -450 0
-450 -568 -396 0
451 -452 -453 -454 -457 0
457 -451 0
452 -451 0
454 -451 0
453 -451 0
452 723 -507 -753 0
452 507 753 -521 0
452 507 723 753 0
507 -452 -753 0
521 -452 -723 0
753 -452 -507 0
-452 -723 -753 0
453 507 596 754 0
453 596 -507 -754 0
453 507 754 -718 0
718 -453 -596 0
507 -453 -754 0
754 -453 -507 0
-453 -596 -754 0
454 650 719 456 -455 0
454 -650 -719 -455 -456 0
719 -454 -456 0
456 -454 -650 0
455 -454 0
650 -454 -719 0
455 -507 -654 0
455 507 654 -723 0
455 507 521 654 0
654 -455 -507 0
507 -455 -654 0
507 723 -455 -521 0
456 507 -747 0
-456 -507 0
747 -456 0
457 -458 -459 -460 -461 0
461 -457 0
458 -457 0
460 -457 0
459 -457 0
458 666 673 -507 -677 0
458 -507 -666 -673 -677 0
458 507 666 673 677 0
458 507 677 -666 -673 0
507 -458 -677 0
677 -458 -507 0
673 -458 -666 0
666 -458 -673 0
459 597 614 -516 -743 0
459 -516 -597 -614 -743 0
459 516 597 614 743 0
459 516 743 -597 -614 0
516 -459 -743 0
743 -459 -516 0
614 -459 -597 0
597 -459 -614 0
460 383 -517 -624 0
460 517 624 -749 0
460 517 624 383 0
460 -517 -624 -749 0
517 -460 -624 0
624 -460 -517 0
749 -460 -383 0
461 507 687 -721 -722 0
461 -507 -687 -721 -722 0
461 507 687 721 722 0
461 721 722 -507 -687 0
507 -461 -687 0
687 -461 -507 0
721 -461 -722 0
722 -461 -721 0
462 463 468 -469 0
462 468 -547 -469 0
469 -462 0
-462 -468 0
547 -462 -463 0
463 464 -94 0
94 -463 0
-463 -464 0
464 102 465 0
464 685 218 465 0
-464 -465 0
-464 -218 -102 0
-464 -685 -102 0
465 -466 -105 0
465 467 -81 -105 0
105 -465 0
466 -465 -467 0
81 466 -465 0
466 685 -218 0
-466 -685 0
218 -466 0
467 -580 -634 -731 0
580 -467 0
634 -467 0
731 -467 0
468 109 -582 -634 0
468 109 175 -634 0
634 -468 0
-468 -109 0
582 -468 -175 0
469 605 615 0
469 -112 -113 0
469 615 -113 0
469 605 -112 0
112 -469 -615 0
113 -469 -605 0
470 472 -112 -471 0
470 594 472 -471 0
471 -470 0
-470 -472 0
112 -470 -594 0
471 265 -709 0
471 288 -751 0
471 -709 -751 0
471 265 288 0
709 -471 -288 0
751 -471 -265 0
472 109 463 -547 0
547 -472 0
-472 -463 0
-472 -109 0
473 -598 -474 -475 0
473 598 474 -475 0
475 -473 0
474 -473 -598 0
598 -473 -474 0
474 144 -223 0
474 144 -123 -128 0
474 123 128 144 0
-474 -144 0
128 223 -474 -123 0
123 223 -474 -128 0
475 691 476 -640 0
475 53 -691 -476 0
475 -640 -691 -476 0
475 691 53 476 0
691 -475 -476 0
476 -475 -691 0
640 -475 -53 0
476 142 481 482 0
476 481 -142 -477 0
-476 -481 0
142 -476 -482 0
477 -476 -142 0
477 122 -478 0
-477 -122 0
478 -477 0
478 479 480 0
-478 -479 0
-478 -480 0
479 660 -316 0
479 660 317 0
-479 -660 0
316 -479 -317 0
480 316 317 -117 0
117 -480 0
-480 -317 0
-480 -316 0
481 116 478 0
-481 -116 0
-481 -478 0
482 154 -116 0
116 -482 0
-482 -154 0
483 497 -484 -492 -500 0
500 -483 0
484 -483 0
492 -483 0
-483 -497 0
484 236 485 -487 0
484 485 -630 -487 0
487 -484 0
-484 -485 0
630 -484 -236 0
485 715 -486 0
485 109 486 -715 0
486 -485 -109 0
-485 -715 -486 0
715 486 -485 0
486 -709 -94 0
709 -486 0
94 -486 0
487 488 -109 0
487 488 -489 0
487 610 488 0
-487 -488 0
109 489 -487 -610 0
488 682 -199 0
-488 -682 0
199 -488 0
489 490 -94 0
489 -682 -94 -96 0
94 -489 0
682 -489 -490 0
96 -489 -490 0
490 725 79 491 0
490 79 97 491 0
-490 -491 0
-490 -79 0
-490 -725 -97 0
491 731 -539 -100 0
491 -538 -731 -100 0
100 -491 0
539 731 -491 0
538 -491 -731 0
492 496 -610 -493 0
492 489 496 -493 0
493 -492 0
-492 -496 0
610 -492 -489 0
493 636 746 494 0
493 746 -636 -494 0
493 203 -636 -494 0
493 636 203 494 0
636 -493 -494 0
494 -493 -636 0
-493 -746 -203 0
494 116 -495 0
494 116 -478 0
494 116 -123 0
-494 -116 0
123 478 495 -494 0
495 -129 -138 0
495 132 -129 0
129 -495 0
138 -495 -132 0
496 109 246 -588 0
588 -496 0
-496 -246 0
-496 -109 0
497 109 -498 0
497 109 381 -569 0
497 569 109 -381 0
-497 -109 0
498 -497 -569 -381 0
569 381 498 -497 0
498 -507 -562 0
498 -562 -499 0
498 507 562 499 0
562 -498 -507 0
562 -498 -499 0
507 499 -498 -562 0
499 -685 -464 0
499 581 -464 0
464 -499 0
685 -499 -581 0
500 684 501 502 505 0
500 502 505 -684 -501 0
-500 -502 0
501 -500 -684 0
-500 -505 0
684 -500 -501 0
501 -129 -131 -260 0
501 129 131 -260 0
260 -501 0
131 -501 -129 0
129 -501 -131 0
502 109 503 -175 0
502 109 503 504 0
-502 -109 0
-502 -503 0
175 -502 -504 0
503 634 -175 0
503 582 -175 0
175 -503 0
-503 -582 -634 0
504 580 685 0
-504 -580 0
-504 -685 0
505 109 175 -676 0
505 676 -175 -185 0
505 109 -676 -185 0
-505 -676 -109 0
676 175 -505 0
185 -505 -175 0
965 0
2 4 0
-2 -4 0
3 4 0
-3 -4 0
3 0
